NumberOfAtoms 114
SpinPolarized yes
#FixSpin .true.
#TotalSpin 
NumberOfSpecies 3

 
MD.TypeOfRun  nose
MD.FinalTimeStep 15
MD.LengthTimeStep 1.0  fs
MD.InitialTemperature 300 K 
MD.TargetTemperature  300  K


%block ChemicalSpeciesLabel
1  6  C
2  7  N
3  1  H
%endblock ChemicalSpeciesLabel

PAO.BasisSize dzp 
 PAO.EnergyShift 0.02 Ry 
 
MeshCutoff          100 Ry
MaxSCFIterations    100  
DM.NumberPulay       3  
DM.Tolerance         1e-3
WriteDenchar	.true.

%block ProjectedDensityOfStates
-10.0 10.0 0.200 500 eV
%endblock ProjectedDensityOfStates
NetCharge 0.00

%block BandLines
1  1.000  1.000 1.000  L
20 0.00   0.00   0.00  \Gamma
25 2.00   0.000  0.00  X
30 2.00   2.00   2.00  \Gamma
%endblock BandLines


LongOutput .true.
WriteCoorXmol .true.
LatticeConstant 1 Ang
%block LatticeVectors
  26.24877 0.0 0.0
  0.0 20.18967 0.0
  0.0 0.0 16.56471
%endblock LatticeVectors


 

#UseSaveData .true.  
%block kgrid_Monkhorst_Pack
1 0 0 0.0 
 0 1 0 0.0 
 0 0 1 0.0 

%endblock kgrid_Monkhorst_Pack
WriteMDXmol .true.
AtomicCoordinatesFormat Ang
%block AtomicCoordinatesAndAtomicSpecies
-5.65370  1.24685 -2.05691  1 
-7.12990  1.57215 -2.14443  1 
-7.34166  3.08693 -1.93960  1 
-6.62056  3.71935 -3.17116  1 
-5.08764  3.57443 -3.02760  1 
-4.65504  2.24781 -2.39691  1 
-3.28683  2.11398 -2.01625  1 
-2.96942  0.99722 -1.24733  1 
-3.99417  0.03139 -1.07399  1 
-5.31551  0.02449 -1.46897  1 
-3.55819  -1.07898 -0.39470  1 
-4.29464  -2.20801 -0.20830  1 
-5.66046  -2.21119 -0.53376  1 
-6.12269  -1.05436 -1.17116  2 
-1.60480  0.83088 -0.69991  1 
-1.25211  -0.36830 0.02107  1 
-2.27093  -1.23999 0.11350  1 
-2.31338  2.99811 -2.28716  2 
-1.03370  2.77310 -1.81613  1 
-0.58034  1.69204 -1.00288  1 
0.82130  1.32301 -0.60497  1 
1.08918  -0.01906 -0.13169  1 
0.05241  -0.86851 0.19870  1 
0.17847  -2.29826 0.32503  1 
-0.88331  -3.15450 0.64694  1 
-2.11638  -2.57169 0.43467  1 
1.97778  2.09880 -0.74548  1 
3.26007  1.63422 -0.59570  2 
3.44553  0.31461 -0.33580  1 
2.39161  -0.55732 -0.14971  1 
2.61954  -2.05312 -0.00766  1 
1.39746  -2.90320 -0.35896  1 
-6.85028  3.55004 -0.52135  1 
-7.57148  2.85415 0.65623  1 
-7.03926  3.24037 2.04520  1 
-5.57012  2.89042 2.24153  1 
-7.04865  5.14502 -3.56558  1 
-8.52343  5.25274 -3.95434  1 
-6.65981  -3.32998 -0.31511  1 
-6.54060  -4.16210 0.99066  1 
-7.63149  -5.20918 1.11303  1 
-5.24652  -4.93012 1.15106  1 
1.17377  -3.14345 -1.91014  1 
1.00303  -1.96993 -2.90438  1 
-0.28607  -1.20145 -2.80815  1 
4.88191  -0.11142 -0.15054  1 
5.56633  -0.56874 -1.44761  1 
7.03378  -1.00953 -1.22834  1 
7.11873  -2.19759 -0.26403  1 
7.77569  -1.34065 -2.54884  1 
7.22746  -2.55565 -3.30655  1 
8.00696  -2.85840 -4.57810  1 
-3.35165  -3.10947 0.24363  2 
1.92960  3.57934 -0.99814  1 
-7.69691  1.02639 -1.38474  3 
-7.52195  1.24222 -3.11331  3 
-8.41635  3.28440 -1.99535  3 
-6.89457  3.11116 -4.04771  3 
-4.70873  4.39533 -2.40508  3 
-4.62005  3.66773 -4.01601  3 
-0.34607  3.51503 -2.20033  3 
-0.77619  -4.22798 0.74967  3 
3.44315  -2.39276 -0.64439  3 
2.90547  -2.25265 1.03310  3 
1.56915  -3.90920 0.06380  3 
-6.95847  4.63491 -0.41853  3 
-5.78203  3.35096 -0.40900  3 
-7.48359  1.76523 0.57550  3 
-8.64048  3.09067 0.61254  3 
-7.62438  2.70654 2.80654  3 
-7.19218  4.30973 2.22559  3 
-5.38921  1.82958 2.03922  3 
-5.25786  3.09887 3.26980  3 
-4.93068  3.48264 1.58157  3 
-6.46572  5.45131 -4.44597  3 
-6.82090  5.86035 -2.77037  3 
-8.74198  4.65125 -4.84446  3 
-8.77914  6.29136 -4.18952  3 
-9.18884  4.92692 -3.15149  3 
-6.64843  -3.97886 -1.19874  3 
-7.65633  -2.86084 -0.29846  3 
-6.61187  -3.46830 1.83735  3 
-7.60176  -5.89831 0.26244  3 
-8.61472  -4.74596 1.18108  3 
-7.46720  -5.79962 2.02375  3 
-4.89310  -5.32487 0.18704  3 
-5.24301  -5.75180 1.86829  3 
-4.57707  -4.23473 1.64662  3 
0.31891  -3.82105 -2.04569  3 
2.04924  -3.69892 -2.27412  3 
1.02667  -2.34668 -3.92848  3 
1.84395  -1.27669 -2.79480  3 
-1.17746  -1.79379 -2.59177  3 
-0.46577  -0.44988 -3.57811  3 
-0.11201  -0.56079 -1.99452  3 
4.91569  -0.89543 0.61512  3 
5.42049  0.73951 0.27903  3 
5.53184  0.25052 -2.17632  3 
5.00010  -1.39546 -1.89053  3 
7.57013  -0.16730 -0.76917  3 
6.41608  -2.98733 -0.55051  3 
6.88341  -1.89438 0.76013  3 
8.12685  -2.62417 -0.25083  3 
8.83095  -1.53203 -2.30781  3 
7.76933  -0.45941 -3.20200  3 
6.17581  -2.39851 -3.56474  3 
7.28182  -3.44671 -2.67268  3 
7.95091  -2.03354 -5.29491  3 
7.59420  -3.75282 -5.05753  3 
9.05993  -3.05600 -4.35411  3 
-3.43381  -4.10467 0.30379  3 
2.84904  4.04997 -0.64911  3 
1.10780  4.03624 -0.43596  3 
1.82311  3.78275 -2.06709  3 
 %endblock AtomicCoordinatesAndAtomicSpecies

