NumberOfAtoms 77
SpinPolarized yes
#FixSpin .true.
#TotalSpin 
NumberOfSpecies 3

 
MD.TypeOfRun  nose
MD.FinalTimeStep 15
MD.LengthTimeStep 1.0  fs
MD.InitialTemperature 300 K 
MD.TargetTemperature  300  K


%block ChemicalSpeciesLabel
1  6  C
2  7  N
3  1  H
%endblock ChemicalSpeciesLabel

PAO.BasisSize dzp 
 PAO.EnergyShift 0.02 Ry 
 
MeshCutoff          100 Ry
MaxSCFIterations    100  
DM.NumberPulay       3  
DM.Tolerance         1e-3
WriteDenchar	.true.

%block ProjectedDensityOfStates
-10.0 10.0 0.200 500 eV
%endblock ProjectedDensityOfStates
NetCharge 0.00

%block BandLines
1  1.000  1.000 1.000  L
20 0.00   0.00   0.00  \Gamma
25 2.00   0.000  0.00  X
30 2.00   2.00   2.00  \Gamma
%endblock BandLines


LongOutput .true.
WriteCoorXmol .true.
LatticeConstant 1 Ang
%block LatticeVectors
  24.53637 0.0 0.0
  0.0 20.66324 0.0
  0.0 0.0 15.09678
%endblock LatticeVectors


 

#UseSaveData .true.  
%block kgrid_Monkhorst_Pack
1 0 0 0.0 
 0 1 0 0.0 
 0 0 1 0.0 

%endblock kgrid_Monkhorst_Pack
WriteMDXmol .true.
AtomicCoordinatesFormat Ang
%block AtomicCoordinatesAndAtomicSpecies
1.12911  1.75110 -0.89833  1 
2.57759  1.40551 -0.59828  1 
2.79421  -0.02307 -0.05730  1 
4.24742  -0.39763 0.24113  1 
5.26898  0.54800 0.01104  1 
6.58353  0.23465 0.35927  1 
7.71264  1.02225 0.28140  2 
7.71653  1.97363 -0.04090  3 
8.77262  0.34652 0.81998  1 
10.10952  0.84809 1.08182  1 
10.65518  1.94635 0.45897  1 
11.89783  2.40427 0.70467  2 
12.65015  1.79152 1.64494  1 
13.94563  2.27189 1.90365  1 
14.55440  3.34920 1.00268  1 
14.94343  4.60093 1.80251  1 
15.73730  2.80887 0.15675  1 
15.38817  1.66451 -0.81542  1 
14.37936  2.03491 -1.89492  1 
14.70185  1.72308 2.95913  1 
14.21122  0.66480 3.71170  1 
12.95925  0.13577 3.41030  1 
12.16626  0.67978 2.37345  1 
10.89234  0.15752 2.03290  1 
10.29810  -1.07946 2.71279  1 
9.26386  -1.85353 1.85897  1 
8.33178  -0.90232 1.19842  1 
6.94999  -0.98897 0.89931  1 
5.95670  -1.96369 1.06821  1 
4.60698  -1.66508 0.75853  1 
3.60279  -2.75848 1.04591  1 
3.05856  -2.68929 2.48130  1 
2.01015  -3.77772 2.80892  1 
0.79405  -3.64367 1.88895  1 
2.63984  -5.18444 2.76846  1 
1.67840  -6.31447 3.10486  1 
1.05419  2.81516 -1.15307  3 
0.48467  1.56616 -0.03499  3 
0.75441  1.17905 -1.75203  3 
2.94911  2.13240 0.13495  3 
3.15242  1.54732 -1.52199  3 
2.38977  -0.73716 -0.78405  3 
2.21811  -0.12342 0.87125  3 
5.05940  1.52579 -0.40036  3 
10.11261  2.51217 -0.29270  3 
13.80098  3.70867 0.29387  3 
15.75487  4.41887 2.51401  3 
14.08194  4.97800 2.36677  3 
15.26538  5.40109 1.12642  3 
16.53887  2.45472 0.81836  3 
16.16630  3.63375 -0.42636  3 
15.01905  0.79535 -0.26001  3 
16.31019  1.33696 -1.31338  3 
13.45203  2.42729 -1.47506  3 
14.11746  1.15024 -2.48577  3 
14.78843  2.78482 -2.57898  3 
15.68937  2.11628 3.19313  3 
14.79772  0.24268 4.51780  3 
12.60788  -0.69339 4.01339  3 
9.82418  -0.74654 3.64561  3 
11.08679  -1.79418 2.97167  3 
8.72854  -2.57205 2.48737  3 
9.79033  -2.42227 1.08118  3 
6.22885  -2.93745 1.46775  3 
4.09402  -3.72595 0.88206  3 
2.80254  -2.71603 0.30374  3 
2.60971  -1.70318 2.65604  3 
3.88907  -2.76792 3.19653  3 
1.66574  -3.59704 3.83704  3 
1.05569  -3.83234 0.84388  3 
0.37194  -2.63507 1.95778  3 
0.00250  -4.34722 2.15896  3 
3.47396  -5.21878 3.48095  3 
3.06032  -5.38928 1.77912  3 
1.19102  -6.14924 4.06990  3 
2.22470  -7.26215 3.15478  3 
0.90859  -6.42507 2.33531  3 
 %endblock AtomicCoordinatesAndAtomicSpecies

