NumberOfAtoms 20
SpinPolarized yes
#FixSpin .true.
#TotalSpin 
NumberOfSpecies 3

 
MD.TypeOfRun  nose
MD.FinalTimeStep 15
MD.LengthTimeStep 1.0  fs
MD.InitialTemperature 300 K 
MD.TargetTemperature  300  K


%block ChemicalSpeciesLabel
1  6  C
2  7  N
3  1  H
%endblock ChemicalSpeciesLabel

PAO.BasisSize dzp 
 PAO.EnergyShift 0.02 Ry 
 
MeshCutoff          100 Ry
MaxSCFIterations    100  
DM.NumberPulay       3  
DM.Tolerance         1e-3
WriteDenchar	.true.

%block ProjectedDensityOfStates
-10.0 10.0 0.200 500 eV
%endblock ProjectedDensityOfStates
NetCharge 0.00

%block BandLines
1  1.000  1.000 1.000  L
20 0.00   0.00   0.00  \Gamma
25 2.00   0.000  0.00  X
30 2.00   2.00   2.00  \Gamma
%endblock BandLines


LongOutput .true.
WriteCoorXmol .true.
LatticeConstant 1 Ang
%block LatticeVectors
  13.84713 0.0 0.0
  0.0 14.79643 0.0
  0.0 0.0 9.78791
%endblock LatticeVectors


 

#UseSaveData .true.  
%block kgrid_Monkhorst_Pack
1 0 0 0.0 
 0 1 0 0.0 
 0 0 1 0.0 

%endblock kgrid_Monkhorst_Pack
WriteMDXmol .true.
AtomicCoordinatesFormat Ang
%block AtomicCoordinatesAndAtomicSpecies
0.96690  -0.12712 0.10565  1 
2.46991  -0.08075 0.09413  1 
3.18420  -1.28151 0.07704  1 
4.56414  -1.23054 0.05666  1 
5.27434  -0.08527 0.04638  2 
4.59810  1.07576 0.05676  1 
5.32492  2.25856 0.02358  1 
4.70235  3.50867 0.02024  1 
3.31827  3.58622 0.06681  1 
2.56424  2.41396 0.10608  1 
3.18583  1.14270 0.08959  1 
0.59560  -1.15658 0.05859  3 
0.56344  0.40310 -0.76308  3 
0.57844  0.32295 1.02483  3 
2.68088  -2.24248 0.07458  3 
5.15694  -2.14065 0.04198  3 
6.41057  2.20378 -0.00848  3 
5.30292  4.41350 -0.01937  3 
2.82361  4.55395 0.06799  3 
1.48172  2.50215 0.14396  3 
 %endblock AtomicCoordinatesAndAtomicSpecies


